10J3M/DAT/10J3MUNR-10.dat
10 3
30.8725 1.8252
0.3027 15.1031
41.098 33.6485
18.1642 33.9852
17.4815 9.2712
27.5163 30.1022
10.3515 1.6548
32.6348 41.9881
21.7159 3.4714
20.2816 7.647
178.6967