10J3M/SOL/10J3MUNR-10.sol
solution status: optimal solution found
objective value:                     66.6348333333333
x#1#1                                               1 	(obj:0)
x#2#2                                               1 	(obj:0)
x#3#1                                               1 	(obj:0)
x#4#2                                               1 	(obj:0)
x#5#2                               0.502235764349475 	(obj:0)
x#5#3                               0.497764235650525 	(obj:0)
x#6#3                                               1 	(obj:0)
x#7#2                                               1 	(obj:0)
x#8#1                                               1 	(obj:0)
x#9#1                                               1 	(obj:0)
x#10#1                              0.672608512210194 	(obj:0)
x#10#2                              0.327391487789806 	(obj:0)
z                                    66.6348333333333 	(obj:1)
